32644
1 1 1 1 1 1 0 1 1 1 1 1 0 0 1 1 1 1 0 1 1 0 1 1 1 0 0 1 1 1
19 20 1 15 9 3 8 3 24 5 9 4 8 14 27 2 14 16 16 5 16 16 4 5 17 8 7 0 3 16 4 5 7 3 2 16 7 24 24 10 1 5 8 1 3 22 3 5 22 19 17 14 24 4 17 4 5 5 14 15 17 27 22 29 15 24 5 14 24 10 29 3 2 8 0 15 16 11 3 14 5 5 11 24 20 5 15 2 24 15 9 29 0 27 29 17 20 29 11 3 29 23 27 11 27 7 1 23 11 9 7 1 29 19 7 17 20 8 11 2 15 10 10 22 28 15 14 20 8 2 23 8 23 9 16 28 5 23 22 1 2 17 19 11 11 19 11 8 11 9 8 11 5 22 4 24 0 24 24 17 23 8 19 17 11 0 2 5 29 23 2 14 24 20 23 10 2 14 27 4 3 4 28 22 28 15 29 1 28 29 16 8 23 20 8 10 4 1 27 8